HUN,8,6,51
5,13,4,13,2,98,1,19,0,2,3,90
5,99,3,6,1,9,2,11,0,45,4,43
3,84,5,51,1,8,2,28,0,22,4,7
0,51,5,1,2,57,1,58,3,88,4,62
2,66,4,32,5,85,0,54,3,73,1,75
0,64,3,34,5,72,1,24,4,40,2,32
0,60,5,22,4,67,2,70,1,23,3,60
2,18,3,54,1,98,5,36,4,91,0,44
